/*********************************************
 * OPL 12.10.0.0 Data
 * Author: tt_sina
 * Creation Date: Nov 4, 2021 at 9:53:07 AM
 *********************************************/
n=7;
d=[[0 11 1 3 4 5 6]
   [10 0 1 3 4 5 6]
   [20 11 0 3 4 5 6]
   [30 11 1 0 4 5 6]
   [40 11 1 3 0 5 6]
   [50 11 1 3 4 0 6]
   [60 11 1 3 4 5 0]];